0 31 37 47 27 1 5 43 40 68
31 0 84 61 39 45 4 47 41 23
37 84 0 17 59 49 10 60 18 12
47 61 17 0 80 9 5 38 85 5
27 39 59 80 0 30 53 18 31 44
1 45 49 9 30 0 94 18 41 7
5 4 10 5 53 94 0 5 32 1
43 47 60 38 18 18 5 0 8 56
40 41 18 85 31 41 32 8 0 6
68 23 12 5 44 7 1 56 6 0
